0 0 0 0
0 1 0 0
0 2 0 0
0 3 0 2
0 4 2 2
0 5 2 10
0 6 0 11
0 7 2 16
0 8 1 15
0 9 0 3
0 10 0 21
0 11 0 13
0 12 0 19
0 13 0 20
0 14 0 27
0 15 2 3
0 16 0 16
0 17 0 26
0 18 0 21
0 19 0 27
0 20 0 20
0 21 0 29
0 22 0 23
0 23 0 37
0 24 0 30
0 25 0 31
0 26 0 43
0 27 0 35
0 28 0 37
0 29 0 45
0 30 1 40
0 31 0 46
